certificates/rado_a12_c100_N29.drat
8 -28 -29 0
-28 -29 0
d 8 -28 -29 0
24 -29 0
9 4 0
d 12 9 4 0
-10 -29 0
-29 0
4 0
-8 0
12 0
25 0
-9 0
1 0
17 0
10 0
21 0
16 0
5 0
13 0
0
